c File: flat200_3_0.col
c
c SOURCE: Joseph Culberson (joe@cs.ualberta.ca)
c DESCRIPTION: Quasi-random coloring problem
c              generated with flatness = 0
c                             probability = 0.036
c                             known coloring = 3
c                             random seed = 1100
c              Creation Date:  Wed Feb 24 10:40:25 1999
c Maximum degree = 8 Minimum degree = 0
c COLOR VERIFICATION: Using the permuted order
c under simple greedy yields the specified
c coloring number
c Color = 3 specified partitions = 3
c p edge 200 479
c cnf created by edge2cnf
p cnf 600 2237
-1 -2 0
-1 -3 0
-2 -3 0
1 2 3 0
-4 -5 0
-4 -6 0
-5 -6 0
4 5 6 0
-7 -8 0
-7 -9 0
-8 -9 0
7 8 9 0
-10 -11 0
-10 -12 0
-11 -12 0
10 11 12 0
-13 -14 0
-13 -15 0
-14 -15 0
13 14 15 0
-16 -17 0
-16 -18 0
-17 -18 0
16 17 18 0
-19 -20 0
-19 -21 0
-20 -21 0
19 20 21 0
-22 -23 0
-22 -24 0
-23 -24 0
22 23 24 0
-25 -26 0
-25 -27 0
-26 -27 0
25 26 27 0
-28 -29 0
-28 -30 0
-29 -30 0
28 29 30 0
-31 -32 0
-31 -33 0
-32 -33 0
31 32 33 0
-34 -35 0
-34 -36 0
-35 -36 0
34 35 36 0
-37 -38 0
-37 -39 0
-38 -39 0
37 38 39 0
-40 -41 0
-40 -42 0
-41 -42 0
40 41 42 0
-43 -44 0
-43 -45 0
-44 -45 0
43 44 45 0
-46 -47 0
-46 -48 0
-47 -48 0
46 47 48 0
-49 -50 0
-49 -51 0
-50 -51 0
49 50 51 0
-52 -53 0
-52 -54 0
-53 -54 0
52 53 54 0
-55 -56 0
-55 -57 0
-56 -57 0
55 56 57 0
-58 -59 0
-58 -60 0
-59 -60 0
58 59 60 0
-61 -62 0
-61 -63 0
-62 -63 0
61 62 63 0
-64 -65 0
-64 -66 0
-65 -66 0
64 65 66 0
-67 -68 0
-67 -69 0
-68 -69 0
67 68 69 0
-70 -71 0
-70 -72 0
-71 -72 0
70 71 72 0
-73 -74 0
-73 -75 0
-74 -75 0
73 74 75 0
-76 -77 0
-76 -78 0
-77 -78 0
76 77 78 0
-79 -80 0
-79 -81 0
-80 -81 0
79 80 81 0
-82 -83 0
-82 -84 0
-83 -84 0
82 83 84 0
-85 -86 0
-85 -87 0
-86 -87 0
85 86 87 0
-88 -89 0
-88 -90 0
-89 -90 0
88 89 90 0
-91 -92 0
-91 -93 0
-92 -93 0
91 92 93 0
-94 -95 0
-94 -96 0
-95 -96 0
94 95 96 0
-97 -98 0
-97 -99 0
-98 -99 0
97 98 99 0
-100 -101 0
-100 -102 0
-101 -102 0
100 101 102 0
-103 -104 0
-103 -105 0
-104 -105 0
103 104 105 0
-106 -107 0
-106 -108 0
-107 -108 0
106 107 108 0
-109 -110 0
-109 -111 0
-110 -111 0
109 110 111 0
-112 -113 0
-112 -114 0
-113 -114 0
112 113 114 0
-115 -116 0
-115 -117 0
-116 -117 0
115 116 117 0
-118 -119 0
-118 -120 0
-119 -120 0
118 119 120 0
-121 -122 0
-121 -123 0
-122 -123 0
121 122 123 0
-124 -125 0
-124 -126 0
-125 -126 0
124 125 126 0
-127 -128 0
-127 -129 0
-128 -129 0
127 128 129 0
-130 -131 0
-130 -132 0
-131 -132 0
130 131 132 0
-133 -134 0
-133 -135 0
-134 -135 0
133 134 135 0
-136 -137 0
-136 -138 0
-137 -138 0
136 137 138 0
-139 -140 0
-139 -141 0
-140 -141 0
139 140 141 0
-142 -143 0
-142 -144 0
-143 -144 0
142 143 144 0
-145 -146 0
-145 -147 0
-146 -147 0
145 146 147 0
-148 -149 0
-148 -150 0
-149 -150 0
148 149 150 0
-151 -152 0
-151 -153 0
-152 -153 0
151 152 153 0
-154 -155 0
-154 -156 0
-155 -156 0
154 155 156 0
-157 -158 0
-157 -159 0
-158 -159 0
157 158 159 0
-160 -161 0
-160 -162 0
-161 -162 0
160 161 162 0
-163 -164 0
-163 -165 0
-164 -165 0
163 164 165 0
-166 -167 0
-166 -168 0
-167 -168 0
166 167 168 0
-169 -170 0
-169 -171 0
-170 -171 0
169 170 171 0
-172 -173 0
-172 -174 0
-173 -174 0
172 173 174 0
-175 -176 0
-175 -177 0
-176 -177 0
175 176 177 0
-178 -179 0
-178 -180 0
-179 -180 0
178 179 180 0
-181 -182 0
-181 -183 0
-182 -183 0
181 182 183 0
-184 -185 0
-184 -186 0
-185 -186 0
184 185 186 0
-187 -188 0
-187 -189 0
-188 -189 0
187 188 189 0
-190 -191 0
-190 -192 0
-191 -192 0
190 191 192 0
-193 -194 0
-193 -195 0
-194 -195 0
193 194 195 0
-196 -197 0
-196 -198 0
-197 -198 0
196 197 198 0
-199 -200 0
-199 -201 0
-200 -201 0
199 200 201 0
-202 -203 0
-202 -204 0
-203 -204 0
202 203 204 0
-205 -206 0
-205 -207 0
-206 -207 0
205 206 207 0
-208 -209 0
-208 -210 0
-209 -210 0
208 209 210 0
-211 -212 0
-211 -213 0
-212 -213 0
211 212 213 0
-214 -215 0
-214 -216 0
-215 -216 0
214 215 216 0
-217 -218 0
-217 -219 0
-218 -219 0
217 218 219 0
-220 -221 0
-220 -222 0
-221 -222 0
220 221 222 0
-223 -224 0
-223 -225 0
-224 -225 0
223 224 225 0
-226 -227 0
-226 -228 0
-227 -228 0
226 227 228 0
-229 -230 0
-229 -231 0
-230 -231 0
229 230 231 0
-232 -233 0
-232 -234 0
-233 -234 0
232 233 234 0
-235 -236 0
-235 -237 0
-236 -237 0
235 236 237 0
-238 -239 0
-238 -240 0
-239 -240 0
238 239 240 0
-241 -242 0
-241 -243 0
-242 -243 0
241 242 243 0
-244 -245 0
-244 -246 0
-245 -246 0
244 245 246 0
-247 -248 0
-247 -249 0
-248 -249 0
247 248 249 0
-250 -251 0
-250 -252 0
-251 -252 0
250 251 252 0
-253 -254 0
-253 -255 0
-254 -255 0
253 254 255 0
-256 -257 0
-256 -258 0
-257 -258 0
256 257 258 0
-259 -260 0
-259 -261 0
-260 -261 0
259 260 261 0
-262 -263 0
-262 -264 0
-263 -264 0
262 263 264 0
-265 -266 0
-265 -267 0
-266 -267 0
265 266 267 0
-268 -269 0
-268 -270 0
-269 -270 0
268 269 270 0
-271 -272 0
-271 -273 0
-272 -273 0
271 272 273 0
-274 -275 0
-274 -276 0
-275 -276 0
274 275 276 0
-277 -278 0
-277 -279 0
-278 -279 0
277 278 279 0
-280 -281 0
-280 -282 0
-281 -282 0
280 281 282 0
-283 -284 0
-283 -285 0
-284 -285 0
283 284 285 0
-286 -287 0
-286 -288 0
-287 -288 0
286 287 288 0
-289 -290 0
-289 -291 0
-290 -291 0
289 290 291 0
-292 -293 0
-292 -294 0
-293 -294 0
292 293 294 0
-295 -296 0
-295 -297 0
-296 -297 0
295 296 297 0
-298 -299 0
-298 -300 0
-299 -300 0
298 299 300 0
-301 -302 0
-301 -303 0
-302 -303 0
301 302 303 0
-304 -305 0
-304 -306 0
-305 -306 0
304 305 306 0
-307 -308 0
-307 -309 0
-308 -309 0
307 308 309 0
-310 -311 0
-310 -312 0
-311 -312 0
310 311 312 0
-313 -314 0
-313 -315 0
-314 -315 0
313 314 315 0
-316 -317 0
-316 -318 0
-317 -318 0
316 317 318 0
-319 -320 0
-319 -321 0
-320 -321 0
319 320 321 0
-322 -323 0
-322 -324 0
-323 -324 0
322 323 324 0
-325 -326 0
-325 -327 0
-326 -327 0
325 326 327 0
-328 -329 0
-328 -330 0
-329 -330 0
328 329 330 0
-331 -332 0
-331 -333 0
-332 -333 0
331 332 333 0
-334 -335 0
-334 -336 0
-335 -336 0
334 335 336 0
-337 -338 0
-337 -339 0
-338 -339 0
337 338 339 0
-340 -341 0
-340 -342 0
-341 -342 0
340 341 342 0
-343 -344 0
-343 -345 0
-344 -345 0
343 344 345 0
-346 -347 0
-346 -348 0
-347 -348 0
346 347 348 0
-349 -350 0
-349 -351 0
-350 -351 0
349 350 351 0
-352 -353 0
-352 -354 0
-353 -354 0
352 353 354 0
-355 -356 0
-355 -357 0
-356 -357 0
355 356 357 0
-358 -359 0
-358 -360 0
-359 -360 0
358 359 360 0
-361 -362 0
-361 -363 0
-362 -363 0
361 362 363 0
-364 -365 0
-364 -366 0
-365 -366 0
364 365 366 0
-367 -368 0
-367 -369 0
-368 -369 0
367 368 369 0
-370 -371 0
-370 -372 0
-371 -372 0
370 371 372 0
-373 -374 0
-373 -375 0
-374 -375 0
373 374 375 0
-376 -377 0
-376 -378 0
-377 -378 0
376 377 378 0
-379 -380 0
-379 -381 0
-380 -381 0
379 380 381 0
-382 -383 0
-382 -384 0
-383 -384 0
382 383 384 0
-385 -386 0
-385 -387 0
-386 -387 0
385 386 387 0
-388 -389 0
-388 -390 0
-389 -390 0
388 389 390 0
-391 -392 0
-391 -393 0
-392 -393 0
391 392 393 0
-394 -395 0
-394 -396 0
-395 -396 0
394 395 396 0
-397 -398 0
-397 -399 0
-398 -399 0
397 398 399 0
-400 -401 0
-400 -402 0
-401 -402 0
400 401 402 0
-403 -404 0
-403 -405 0
-404 -405 0
403 404 405 0
-406 -407 0
-406 -408 0
-407 -408 0
406 407 408 0
-409 -410 0
-409 -411 0
-410 -411 0
409 410 411 0
-412 -413 0
-412 -414 0
-413 -414 0
412 413 414 0
-415 -416 0
-415 -417 0
-416 -417 0
415 416 417 0
-418 -419 0
-418 -420 0
-419 -420 0
418 419 420 0
-421 -422 0
-421 -423 0
-422 -423 0
421 422 423 0
-424 -425 0
-424 -426 0
-425 -426 0
424 425 426 0
-427 -428 0
-427 -429 0
-428 -429 0
427 428 429 0
-430 -431 0
-430 -432 0
-431 -432 0
430 431 432 0
-433 -434 0
-433 -435 0
-434 -435 0
433 434 435 0
-436 -437 0
-436 -438 0
-437 -438 0
436 437 438 0
-439 -440 0
-439 -441 0
-440 -441 0
439 440 441 0
-442 -443 0
-442 -444 0
-443 -444 0
442 443 444 0
-445 -446 0
-445 -447 0
-446 -447 0
445 446 447 0
-448 -449 0
-448 -450 0
-449 -450 0
448 449 450 0
-451 -452 0
-451 -453 0
-452 -453 0
451 452 453 0
-454 -455 0
-454 -456 0
-455 -456 0
454 455 456 0
-457 -458 0
-457 -459 0
-458 -459 0
457 458 459 0
-460 -461 0
-460 -462 0
-461 -462 0
460 461 462 0
-463 -464 0
-463 -465 0
-464 -465 0
463 464 465 0
-466 -467 0
-466 -468 0
-467 -468 0
466 467 468 0
-469 -470 0
-469 -471 0
-470 -471 0
469 470 471 0
-472 -473 0
-472 -474 0
-473 -474 0
472 473 474 0
-475 -476 0
-475 -477 0
-476 -477 0
475 476 477 0
-478 -479 0
-478 -480 0
-479 -480 0
478 479 480 0
-481 -482 0
-481 -483 0
-482 -483 0
481 482 483 0
-484 -485 0
-484 -486 0
-485 -486 0
484 485 486 0
-487 -488 0
-487 -489 0
-488 -489 0
487 488 489 0
-490 -491 0
-490 -492 0
-491 -492 0
490 491 492 0
-493 -494 0
-493 -495 0
-494 -495 0
493 494 495 0
-496 -497 0
-496 -498 0
-497 -498 0
496 497 498 0
-499 -500 0
-499 -501 0
-500 -501 0
499 500 501 0
-502 -503 0
-502 -504 0
-503 -504 0
502 503 504 0
-505 -506 0
-505 -507 0
-506 -507 0
505 506 507 0
-508 -509 0
-508 -510 0
-509 -510 0
508 509 510 0
-511 -512 0
-511 -513 0
-512 -513 0
511 512 513 0
-514 -515 0
-514 -516 0
-515 -516 0
514 515 516 0
-517 -518 0
-517 -519 0
-518 -519 0
517 518 519 0
-520 -521 0
-520 -522 0
-521 -522 0
520 521 522 0
-523 -524 0
-523 -525 0
-524 -525 0
523 524 525 0
-526 -527 0
-526 -528 0
-527 -528 0
526 527 528 0
-529 -530 0
-529 -531 0
-530 -531 0
529 530 531 0
-532 -533 0
-532 -534 0
-533 -534 0
532 533 534 0
-535 -536 0
-535 -537 0
-536 -537 0
535 536 537 0
-538 -539 0
-538 -540 0
-539 -540 0
538 539 540 0
-541 -542 0
-541 -543 0
-542 -543 0
541 542 543 0
-544 -545 0
-544 -546 0
-545 -546 0
544 545 546 0
-547 -548 0
-547 -549 0
-548 -549 0
547 548 549 0
-550 -551 0
-550 -552 0
-551 -552 0
550 551 552 0
-553 -554 0
-553 -555 0
-554 -555 0
553 554 555 0
-556 -557 0
-556 -558 0
-557 -558 0
556 557 558 0
-559 -560 0
-559 -561 0
-560 -561 0
559 560 561 0
-562 -563 0
-562 -564 0
-563 -564 0
562 563 564 0
-565 -566 0
-565 -567 0
-566 -567 0
565 566 567 0
-568 -569 0
-568 -570 0
-569 -570 0
568 569 570 0
-571 -572 0
-571 -573 0
-572 -573 0
571 572 573 0
-574 -575 0
-574 -576 0
-575 -576 0
574 575 576 0
-577 -578 0
-577 -579 0
-578 -579 0
577 578 579 0
-580 -581 0
-580 -582 0
-581 -582 0
580 581 582 0
-583 -584 0
-583 -585 0
-584 -585 0
583 584 585 0
-586 -587 0
-586 -588 0
-587 -588 0
586 587 588 0
-589 -590 0
-589 -591 0
-590 -591 0
589 590 591 0
-592 -593 0
-592 -594 0
-593 -594 0
592 593 594 0
-595 -596 0
-595 -597 0
-596 -597 0
595 596 597 0
-598 -599 0
-598 -600 0
-599 -600 0
598 599 600 0
-70 -1 0
-71 -2 0
-72 -3 0
-235 -1 0
-236 -2 0
-237 -3 0
-373 -1 0
-374 -2 0
-375 -3 0
-436 -1 0
-437 -2 0
-438 -3 0
-469 -1 0
-470 -2 0
-471 -3 0
-520 -1 0
-521 -2 0
-522 -3 0
-535 -1 0
-536 -2 0
-537 -3 0
-574 -1 0
-575 -2 0
-576 -3 0
-46 -4 0
-47 -5 0
-48 -6 0
-115 -4 0
-116 -5 0
-117 -6 0
-463 -4 0
-464 -5 0
-465 -6 0
-505 -4 0
-506 -5 0
-507 -6 0
-76 -7 0
-77 -8 0
-78 -9 0
-91 -7 0
-92 -8 0
-93 -9 0
-262 -7 0
-263 -8 0
-264 -9 0
-277 -7 0
-278 -8 0
-279 -9 0
-496 -7 0
-497 -8 0
-498 -9 0
-595 -7 0
-596 -8 0
-597 -9 0
-25 -10 0
-26 -11 0
-27 -12 0
-127 -10 0
-128 -11 0
-129 -12 0
-253 -10 0
-254 -11 0
-255 -12 0
-385 -10 0
-386 -11 0
-387 -12 0
-388 -10 0
-389 -11 0
-390 -12 0
-391 -10 0
-392 -11 0
-393 -12 0
-466 -10 0
-467 -11 0
-468 -12 0
-490 -10 0
-491 -11 0
-492 -12 0
-142 -13 0
-143 -14 0
-144 -15 0
-169 -13 0
-170 -14 0
-171 -15 0
-367 -13 0
-368 -14 0
-369 -15 0
-439 -13 0
-440 -14 0
-441 -15 0
-499 -13 0
-500 -14 0
-501 -15 0
-523 -13 0
-524 -14 0
-525 -15 0
-568 -13 0
-569 -14 0
-570 -15 0
-100 -16 0
-101 -17 0
-102 -18 0
-277 -16 0
-278 -17 0
-279 -18 0
-286 -16 0
-287 -17 0
-288 -18 0
-397 -16 0
-398 -17 0
-399 -18 0
-22 -19 0
-23 -20 0
-24 -21 0
-184 -19 0
-185 -20 0
-186 -21 0
-226 -19 0
-227 -20 0
-228 -21 0
-298 -19 0
-299 -20 0
-300 -21 0
-316 -19 0
-317 -20 0
-318 -21 0
-361 -19 0
-362 -20 0
-363 -21 0
-553 -19 0
-554 -20 0
-555 -21 0
-31 -22 0
-32 -23 0
-33 -24 0
-115 -22 0
-116 -23 0
-117 -24 0
-172 -22 0
-173 -23 0
-174 -24 0
-187 -22 0
-188 -23 0
-189 -24 0
-463 -22 0
-464 -23 0
-465 -24 0
-577 -22 0
-578 -23 0
-579 -24 0
-178 -25 0
-179 -26 0
-180 -27 0
-361 -25 0
-362 -26 0
-363 -27 0
-496 -25 0
-497 -26 0
-498 -27 0
-97 -28 0
-98 -29 0
-99 -30 0
-112 -28 0
-113 -29 0
-114 -30 0
-238 -28 0
-239 -29 0
-240 -30 0
-256 -28 0
-257 -29 0
-258 -30 0
-514 -28 0
-515 -29 0
-516 -30 0
-106 -31 0
-107 -32 0
-108 -33 0
-280 -31 0
-281 -32 0
-282 -33 0
-550 -31 0
-551 -32 0
-552 -33 0
-52 -34 0
-53 -35 0
-54 -36 0
-187 -34 0
-188 -35 0
-189 -36 0
-340 -34 0
-341 -35 0
-342 -36 0
-412 -34 0
-413 -35 0
-414 -36 0
-544 -34 0
-545 -35 0
-546 -36 0
-148 -37 0
-149 -38 0
-150 -39 0
-568 -37 0
-569 -38 0
-570 -39 0
-151 -40 0
-152 -41 0
-153 -42 0
-88 -43 0
-89 -44 0
-90 -45 0
-322 -43 0
-323 -44 0
-324 -45 0
-523 -43 0
-524 -44 0
-525 -45 0
-550 -43 0
-551 -44 0
-552 -45 0
-61 -46 0
-62 -47 0
-63 -48 0
-229 -46 0
-230 -47 0
-231 -48 0
-340 -46 0
-341 -47 0
-342 -48 0
-409 -46 0
-410 -47 0
-411 -48 0
-430 -46 0
-431 -47 0
-432 -48 0
-550 -46 0
-551 -47 0
-552 -48 0
-190 -49 0
-191 -50 0
-192 -51 0
-328 -49 0
-329 -50 0
-330 -51 0
-337 -49 0
-338 -50 0
-339 -51 0
-481 -49 0
-482 -50 0
-483 -51 0
-577 -49 0
-578 -50 0
-579 -51 0
-589 -49 0
-590 -50 0
-591 -51 0
-181 -52 0
-182 -53 0
-183 -54 0
-256 -52 0
-257 -53 0
-258 -54 0
-325 -52 0
-326 -53 0
-327 -54 0
-184 -55 0
-185 -56 0
-186 -57 0
-265 -55 0
-266 -56 0
-267 -57 0
-268 -55 0
-269 -56 0
-270 -57 0
-310 -55 0
-311 -56 0
-312 -57 0
-103 -58 0
-104 -59 0
-105 -60 0
-121 -58 0
-122 -59 0
-123 -60 0
-154 -58 0
-155 -59 0
-156 -60 0
-199 -58 0
-200 -59 0
-201 -60 0
-313 -58 0
-314 -59 0
-315 -60 0
-427 -58 0
-428 -59 0
-429 -60 0
-487 -58 0
-488 -59 0
-489 -60 0
-190 -61 0
-191 -62 0
-192 -63 0
-268 -61 0
-269 -62 0
-270 -63 0
-289 -61 0
-290 -62 0
-291 -63 0
-301 -61 0
-302 -62 0
-303 -63 0
-385 -61 0
-386 -62 0
-387 -63 0
-406 -64 0
-407 -65 0
-408 -66 0
-331 -70 0
-332 -71 0
-333 -72 0
-517 -70 0
-518 -71 0
-519 -72 0
-187 -73 0
-188 -74 0
-189 -75 0
-490 -73 0
-491 -74 0
-492 -75 0
-181 -76 0
-182 -77 0
-183 -78 0
-232 -76 0
-233 -77 0
-234 -78 0
-382 -76 0
-383 -77 0
-384 -78 0
-304 -79 0
-305 -80 0
-306 -81 0
-496 -79 0
-497 -80 0
-498 -81 0
-142 -82 0
-143 -83 0
-144 -84 0
-232 -82 0
-233 -83 0
-234 -84 0
-484 -82 0
-485 -83 0
-486 -84 0
-541 -82 0
-542 -83 0
-543 -84 0
-598 -82 0
-599 -83 0
-600 -84 0
-136 -85 0
-137 -86 0
-138 -87 0
-148 -85 0
-149 -86 0
-150 -87 0
-241 -85 0
-242 -86 0
-243 -87 0
-280 -85 0
-281 -86 0
-282 -87 0
-364 -85 0
-365 -86 0
-366 -87 0
-481 -85 0
-482 -86 0
-483 -87 0
-574 -85 0
-575 -86 0
-576 -87 0
-577 -85 0
-578 -86 0
-579 -87 0
-127 -88 0
-128 -89 0
-129 -90 0
-166 -88 0
-167 -89 0
-168 -90 0
-364 -88 0
-365 -89 0
-366 -90 0
-421 -88 0
-422 -89 0
-423 -90 0
-520 -88 0
-521 -89 0
-522 -90 0
-472 -91 0
-473 -92 0
-474 -93 0
-481 -91 0
-482 -92 0
-483 -93 0
-586 -91 0
-587 -92 0
-588 -93 0
-313 -94 0
-314 -95 0
-315 -96 0
-322 -94 0
-323 -95 0
-324 -96 0
-436 -94 0
-437 -95 0
-438 -96 0
-499 -94 0
-500 -95 0
-501 -96 0
-526 -94 0
-527 -95 0
-528 -96 0
-595 -94 0
-596 -95 0
-597 -96 0
-151 -97 0
-152 -98 0
-153 -99 0
-361 -97 0
-362 -98 0
-363 -99 0
-148 -100 0
-149 -101 0
-150 -102 0
-151 -100 0
-152 -101 0
-153 -102 0
-235 -100 0
-236 -101 0
-237 -102 0
-334 -100 0
-335 -101 0
-336 -102 0
-454 -100 0
-455 -101 0
-456 -102 0
-493 -100 0
-494 -101 0
-495 -102 0
-502 -100 0
-503 -101 0
-504 -102 0
-139 -103 0
-140 -104 0
-141 -105 0
-196 -103 0
-197 -104 0
-198 -105 0
-265 -103 0
-266 -104 0
-267 -105 0
-319 -103 0
-320 -104 0
-321 -105 0
-358 -103 0
-359 -104 0
-360 -105 0
-145 -106 0
-146 -107 0
-147 -108 0
-196 -106 0
-197 -107 0
-198 -108 0
-205 -106 0
-206 -107 0
-207 -108 0
-217 -106 0
-218 -107 0
-219 -108 0
-352 -106 0
-353 -107 0
-354 -108 0
-505 -106 0
-506 -107 0
-507 -108 0
-130 -109 0
-131 -110 0
-132 -111 0
-262 -109 0
-263 -110 0
-264 -111 0
-367 -109 0
-368 -110 0
-369 -111 0
-469 -109 0
-470 -110 0
-471 -111 0
-511 -109 0
-512 -110 0
-513 -111 0
-175 -112 0
-176 -113 0
-177 -114 0
-193 -112 0
-194 -113 0
-195 -114 0
-202 -112 0
-203 -113 0
-204 -114 0
-289 -112 0
-290 -113 0
-291 -114 0
-343 -112 0
-344 -113 0
-345 -114 0
-559 -112 0
-560 -113 0
-561 -114 0
-121 -115 0
-122 -116 0
-123 -117 0
-196 -115 0
-197 -116 0
-198 -117 0
-322 -115 0
-323 -116 0
-324 -117 0
-355 -115 0
-356 -116 0
-357 -117 0
-571 -115 0
-572 -116 0
-573 -117 0
-241 -118 0
-242 -119 0
-243 -120 0
-394 -118 0
-395 -119 0
-396 -120 0
-448 -118 0
-449 -119 0
-450 -120 0
-475 -118 0
-476 -119 0
-477 -120 0
-484 -118 0
-485 -119 0
-486 -120 0
-454 -121 0
-455 -122 0
-456 -123 0
-478 -121 0
-479 -122 0
-480 -123 0
-565 -121 0
-566 -122 0
-567 -123 0
-595 -121 0
-596 -122 0
-597 -123 0
-193 -124 0
-194 -125 0
-195 -126 0
-307 -124 0
-308 -125 0
-309 -126 0
-430 -124 0
-431 -125 0
-432 -126 0
-592 -124 0
-593 -125 0
-594 -126 0
-136 -127 0
-137 -128 0
-138 -129 0
-568 -127 0
-569 -128 0
-570 -129 0
-385 -130 0
-386 -131 0
-387 -132 0
-451 -130 0
-452 -131 0
-453 -132 0
-517 -130 0
-518 -131 0
-519 -132 0
-577 -130 0
-578 -131 0
-579 -132 0
-367 -133 0
-368 -134 0
-369 -135 0
-406 -133 0
-407 -134 0
-408 -135 0
-487 -133 0
-488 -134 0
-489 -135 0
-181 -136 0
-182 -137 0
-183 -138 0
-328 -136 0
-329 -137 0
-330 -138 0
-334 -136 0
-335 -137 0
-336 -138 0
-361 -136 0
-362 -137 0
-363 -138 0
-457 -136 0
-458 -137 0
-459 -138 0
-496 -136 0
-497 -137 0
-498 -138 0
-175 -139 0
-176 -140 0
-177 -141 0
-223 -139 0
-224 -140 0
-225 -141 0
-322 -139 0
-323 -140 0
-324 -141 0
-463 -139 0
-464 -140 0
-465 -141 0
-229 -142 0
-230 -143 0
-231 -144 0
-388 -142 0
-389 -143 0
-390 -144 0
-400 -142 0
-401 -143 0
-402 -144 0
-343 -145 0
-344 -146 0
-345 -147 0
-397 -145 0
-398 -146 0
-399 -147 0
-400 -145 0
-401 -146 0
-402 -147 0
-436 -145 0
-437 -146 0
-438 -147 0
-589 -145 0
-590 -146 0
-591 -147 0
-250 -148 0
-251 -149 0
-252 -150 0
-526 -148 0
-527 -149 0
-528 -150 0
-529 -148 0
-530 -149 0
-531 -150 0
-562 -148 0
-563 -149 0
-564 -150 0
-241 -151 0
-242 -152 0
-243 -153 0
-418 -151 0
-419 -152 0
-420 -153 0
-166 -157 0
-167 -158 0
-168 -159 0
-319 -157 0
-320 -158 0
-321 -159 0
-391 -157 0
-392 -158 0
-393 -159 0
-493 -157 0
-494 -158 0
-495 -159 0
-559 -157 0
-560 -158 0
-561 -159 0
-463 -160 0
-464 -161 0
-465 -162 0
-292 -163 0
-293 -164 0
-294 -165 0
-595 -163 0
-596 -164 0
-597 -165 0
-595 -166 0
-596 -167 0
-597 -168 0
-295 -169 0
-296 -170 0
-297 -171 0
-424 -169 0
-425 -170 0
-426 -171 0
-544 -169 0
-545 -170 0
-546 -171 0
-595 -169 0
-596 -170 0
-597 -171 0
-253 -172 0
-254 -173 0
-255 -174 0
-289 -172 0
-290 -173 0
-291 -174 0
-457 -172 0
-458 -173 0
-459 -174 0
-589 -172 0
-590 -173 0
-591 -174 0
-598 -172 0
-599 -173 0
-600 -174 0
-208 -175 0
-209 -176 0
-210 -177 0
-424 -175 0
-425 -176 0
-426 -177 0
-571 -175 0
-572 -176 0
-573 -177 0
-205 -178 0
-206 -179 0
-207 -180 0
-253 -178 0
-254 -179 0
-255 -180 0
-316 -181 0
-317 -182 0
-318 -183 0
-406 -181 0
-407 -182 0
-408 -183 0
-445 -181 0
-446 -182 0
-447 -183 0
-478 -184 0
-479 -185 0
-480 -186 0
-202 -187 0
-203 -188 0
-204 -189 0
-508 -187 0
-509 -188 0
-510 -189 0
-379 -190 0
-380 -191 0
-381 -192 0
-475 -190 0
-476 -191 0
-477 -192 0
-427 -193 0
-428 -194 0
-429 -195 0
-268 -196 0
-269 -197 0
-270 -198 0
-406 -196 0
-407 -197 0
-408 -198 0
-481 -196 0
-482 -197 0
-483 -198 0
-259 -199 0
-260 -200 0
-261 -201 0
-268 -199 0
-269 -200 0
-270 -201 0
-415 -199 0
-416 -200 0
-417 -201 0
-469 -199 0
-470 -200 0
-471 -201 0
-301 -202 0
-302 -203 0
-303 -204 0
-424 -202 0
-425 -203 0
-426 -204 0
-439 -202 0
-440 -203 0
-441 -204 0
-451 -202 0
-452 -203 0
-453 -204 0
-481 -202 0
-482 -203 0
-483 -204 0
-238 -205 0
-239 -206 0
-240 -207 0
-268 -205 0
-269 -206 0
-270 -207 0
-358 -205 0
-359 -206 0
-360 -207 0
-415 -205 0
-416 -206 0
-417 -207 0
-511 -205 0
-512 -206 0
-513 -207 0
-589 -205 0
-590 -206 0
-591 -207 0
-268 -208 0
-269 -209 0
-270 -210 0
-346 -208 0
-347 -209 0
-348 -210 0
-367 -208 0
-368 -209 0
-369 -210 0
-466 -208 0
-467 -209 0
-468 -210 0
-397 -211 0
-398 -212 0
-399 -213 0
-544 -211 0
-545 -212 0
-546 -213 0
-448 -214 0
-449 -215 0
-450 -216 0
-577 -214 0
-578 -215 0
-579 -216 0
-376 -217 0
-377 -218 0
-378 -219 0
-427 -217 0
-428 -218 0
-429 -219 0
-445 -217 0
-446 -218 0
-447 -219 0
-340 -220 0
-341 -221 0
-342 -222 0
-424 -220 0
-425 -221 0
-426 -222 0
-475 -220 0
-476 -221 0
-477 -222 0
-292 -223 0
-293 -224 0
-294 -225 0
-493 -223 0
-494 -224 0
-495 -225 0
-508 -223 0
-509 -224 0
-510 -225 0
-580 -223 0
-581 -224 0
-582 -225 0
-589 -223 0
-590 -224 0
-591 -225 0
-271 -226 0
-272 -227 0
-273 -228 0
-304 -226 0
-305 -227 0
-306 -228 0
-427 -226 0
-428 -227 0
-429 -228 0
-559 -226 0
-560 -227 0
-561 -228 0
-358 -229 0
-359 -230 0
-360 -231 0
-481 -229 0
-482 -230 0
-483 -231 0
-586 -229 0
-587 -230 0
-588 -231 0
-250 -232 0
-251 -233 0
-252 -234 0
-397 -232 0
-398 -233 0
-399 -234 0
-520 -232 0
-521 -233 0
-522 -234 0
-535 -232 0
-536 -233 0
-537 -234 0
-319 -238 0
-320 -239 0
-321 -240 0
-361 -238 0
-362 -239 0
-363 -240 0
-511 -238 0
-512 -239 0
-513 -240 0
-442 -241 0
-443 -242 0
-444 -243 0
-445 -241 0
-446 -242 0
-447 -243 0
-532 -241 0
-533 -242 0
-534 -243 0
-322 -244 0
-323 -245 0
-324 -246 0
-364 -247 0
-365 -248 0
-366 -249 0
-523 -247 0
-524 -248 0
-525 -249 0
-295 -250 0
-296 -251 0
-297 -252 0
-370 -250 0
-371 -251 0
-372 -252 0
-391 -250 0
-392 -251 0
-393 -252 0
-412 -250 0
-413 -251 0
-414 -252 0
-535 -250 0
-536 -251 0
-537 -252 0
-556 -250 0
-557 -251 0
-558 -252 0
-295 -253 0
-296 -254 0
-297 -255 0
-301 -253 0
-302 -254 0
-303 -255 0
-595 -253 0
-596 -254 0
-597 -255 0
-301 -256 0
-302 -257 0
-303 -258 0
-469 -256 0
-470 -257 0
-471 -258 0
-580 -256 0
-581 -257 0
-582 -258 0
-370 -259 0
-371 -260 0
-372 -261 0
-391 -259 0
-392 -260 0
-393 -261 0
-532 -259 0
-533 -260 0
-534 -261 0
-547 -259 0
-548 -260 0
-549 -261 0
-490 -262 0
-491 -263 0
-492 -264 0
-568 -262 0
-569 -263 0
-570 -264 0
-358 -265 0
-359 -266 0
-360 -267 0
-406 -265 0
-407 -266 0
-408 -267 0
-409 -265 0
-410 -266 0
-411 -267 0
-436 -265 0
-437 -266 0
-438 -267 0
-478 -265 0
-479 -266 0
-480 -267 0
-478 -268 0
-479 -269 0
-480 -270 0
-280 -271 0
-281 -272 0
-282 -273 0
-301 -274 0
-302 -275 0
-303 -276 0
-352 -274 0
-353 -275 0
-354 -276 0
-496 -274 0
-497 -275 0
-498 -276 0
-541 -274 0
-542 -275 0
-543 -276 0
-364 -277 0
-365 -278 0
-366 -279 0
-535 -277 0
-536 -278 0
-537 -279 0
-379 -280 0
-380 -281 0
-381 -282 0
-490 -280 0
-491 -281 0
-492 -282 0
-502 -280 0
-503 -281 0
-504 -282 0
-478 -286 0
-479 -287 0
-480 -288 0
-511 -286 0
-512 -287 0
-513 -288 0
-514 -286 0
-515 -287 0
-516 -288 0
-541 -286 0
-542 -287 0
-543 -288 0
-301 -289 0
-302 -290 0
-303 -291 0
-436 -289 0
-437 -290 0
-438 -291 0
-451 -289 0
-452 -290 0
-453 -291 0
-541 -289 0
-542 -290 0
-543 -291 0
-457 -292 0
-458 -293 0
-459 -294 0
-505 -292 0
-506 -293 0
-507 -294 0
-343 -295 0
-344 -296 0
-345 -297 0
-352 -295 0
-353 -296 0
-354 -297 0
-418 -295 0
-419 -296 0
-420 -297 0
-427 -295 0
-428 -296 0
-429 -297 0
-394 -298 0
-395 -299 0
-396 -300 0
-478 -298 0
-479 -299 0
-480 -300 0
-424 -301 0
-425 -302 0
-426 -303 0
-472 -301 0
-473 -302 0
-474 -303 0
-478 -304 0
-479 -305 0
-480 -306 0
-376 -307 0
-377 -308 0
-378 -309 0
-487 -307 0
-488 -308 0
-489 -309 0
-505 -307 0
-506 -308 0
-507 -309 0
-322 -310 0
-323 -311 0
-324 -312 0
-328 -310 0
-329 -311 0
-330 -312 0
-355 -310 0
-356 -311 0
-357 -312 0
-442 -310 0
-443 -311 0
-444 -312 0
-571 -310 0
-572 -311 0
-573 -312 0
-355 -313 0
-356 -314 0
-357 -315 0
-487 -313 0
-488 -314 0
-489 -315 0
-472 -316 0
-473 -317 0
-474 -318 0
-346 -319 0
-347 -320 0
-348 -321 0
-439 -319 0
-440 -320 0
-441 -321 0
-574 -319 0
-575 -320 0
-576 -321 0
-418 -322 0
-419 -323 0
-420 -324 0
-463 -322 0
-464 -323 0
-465 -324 0
-331 -325 0
-332 -326 0
-333 -327 0
-346 -325 0
-347 -326 0
-348 -327 0
-481 -325 0
-482 -326 0
-483 -327 0
-415 -328 0
-416 -329 0
-417 -330 0
-445 -328 0
-446 -329 0
-447 -330 0
-523 -328 0
-524 -329 0
-525 -330 0
-367 -331 0
-368 -332 0
-369 -333 0
-502 -331 0
-503 -332 0
-504 -333 0
-352 -334 0
-353 -335 0
-354 -336 0
-340 -337 0
-341 -338 0
-342 -339 0
-352 -337 0
-353 -338 0
-354 -339 0
-520 -337 0
-521 -338 0
-522 -339 0
-580 -337 0
-581 -338 0
-582 -339 0
-592 -337 0
-593 -338 0
-594 -339 0
-361 -340 0
-362 -341 0
-363 -342 0
-544 -340 0
-545 -341 0
-546 -342 0
-565 -340 0
-566 -341 0
-567 -342 0
-427 -343 0
-428 -344 0
-429 -345 0
-364 -346 0
-365 -347 0
-366 -348 0
-418 -349 0
-419 -350 0
-420 -351 0
-508 -349 0
-509 -350 0
-510 -351 0
-400 -352 0
-401 -353 0
-402 -354 0
-520 -355 0
-521 -356 0
-522 -357 0
-592 -355 0
-593 -356 0
-594 -357 0
-499 -358 0
-500 -359 0
-501 -360 0
-484 -361 0
-485 -362 0
-486 -363 0
-400 -364 0
-401 -365 0
-402 -366 0
-541 -364 0
-542 -365 0
-543 -366 0
-454 -367 0
-455 -368 0
-456 -369 0
-577 -367 0
-578 -368 0
-579 -369 0
-565 -370 0
-566 -371 0
-567 -372 0
-517 -373 0
-518 -374 0
-519 -375 0
-430 -376 0
-431 -377 0
-432 -378 0
-523 -376 0
-524 -377 0
-525 -378 0
-541 -376 0
-542 -377 0
-543 -378 0
-508 -379 0
-509 -380 0
-510 -381 0
-532 -379 0
-533 -380 0
-534 -381 0
-454 -382 0
-455 -383 0
-456 -384 0
-484 -382 0
-485 -383 0
-486 -384 0
-538 -385 0
-539 -386 0
-540 -387 0
-400 -388 0
-401 -389 0
-402 -390 0
-442 -388 0
-443 -389 0
-444 -390 0
-451 -391 0
-452 -392 0
-453 -393 0
-490 -394 0
-491 -395 0
-492 -396 0
-511 -394 0
-512 -395 0
-513 -396 0
-517 -397 0
-518 -398 0
-519 -399 0
-439 -400 0
-440 -401 0
-441 -402 0
-523 -400 0
-524 -401 0
-525 -402 0
-538 -403 0
-539 -404 0
-540 -405 0
-556 -403 0
-557 -404 0
-558 -405 0
-442 -409 0
-443 -410 0
-444 -411 0
-499 -412 0
-500 -413 0
-501 -414 0
-517 -412 0
-518 -413 0
-519 -414 0
-472 -415 0
-473 -416 0
-474 -417 0
-583 -415 0
-584 -416 0
-585 -417 0
-466 -418 0
-467 -419 0
-468 -420 0
-592 -418 0
-593 -419 0
-594 -420 0
-514 -421 0
-515 -422 0
-516 -423 0
-550 -421 0
-551 -422 0
-552 -423 0
-463 -424 0
-464 -425 0
-465 -426 0
-502 -424 0
-503 -425 0
-504 -426 0
-541 -424 0
-542 -425 0
-543 -426 0
-472 -427 0
-473 -428 0
-474 -429 0
-538 -433 0
-539 -434 0
-540 -435 0
-586 -433 0
-587 -434 0
-588 -435 0
-478 -439 0
-479 -440 0
-480 -441 0
-502 -442 0
-503 -443 0
-504 -444 0
-457 -445 0
-458 -446 0
-459 -447 0
-520 -445 0
-521 -446 0
-522 -447 0
-469 -448 0
-470 -449 0
-471 -450 0
-541 -448 0
-542 -449 0
-543 -450 0
-559 -448 0
-560 -449 0
-561 -450 0
-571 -448 0
-572 -449 0
-573 -450 0
-454 -451 0
-455 -452 0
-456 -453 0
-460 -451 0
-461 -452 0
-462 -453 0
-526 -451 0
-527 -452 0
-528 -453 0
-595 -451 0
-596 -452 0
-597 -453 0
-574 -457 0
-575 -458 0
-576 -459 0
-475 -460 0
-476 -461 0
-477 -462 0
-547 -463 0
-548 -464 0
-549 -465 0
-547 -466 0
-548 -467 0
-549 -468 0
-550 -466 0
-551 -467 0
-552 -468 0
-523 -475 0
-524 -476 0
-525 -477 0
-553 -484 0
-554 -485 0
-555 -486 0
-502 -490 0
-503 -491 0
-504 -492 0
-568 -490 0
-569 -491 0
-570 -492 0
-562 -493 0
-563 -494 0
-564 -495 0
-580 -496 0
-581 -497 0
-582 -498 0
-505 -499 0
-506 -500 0
-507 -501 0
-568 -505 0
-569 -506 0
-570 -507 0
-568 -514 0
-569 -515 0
-570 -516 0
-586 -517 0
-587 -518 0
-588 -519 0
-568 -529 0
-569 -530 0
-570 -531 0
-544 -532 0
-545 -533 0
-546 -534 0
-565 -535 0
-566 -536 0
-567 -537 0
-544 -538 0
-545 -539 0
-546 -540 0
-592 -547 0
-593 -548 0
-594 -549 0
-565 -562 0
-566 -563 0
-567 -564 0
